InboundTrucks  = 12;
OutboundTrucks = 8;
InboundDoors   = 4;
OutboundDoors  = 4;
ReleaseTime    = [25,58,14,22,0,80,80,37,29,51,26,51];
UnloadTime     = [44,38,13,21,18,16,25,11,25,26,13,23];
LoadTime       = [9,16,15,15,21,23,28,11];
TransferTime   = [| 0,0,0,0,0,0,38,0 | 0,30,0,15,0,0,0,0 | 0,40,0,0,0,0,0,0 | 24,0,0,0,0,10,0,0 | 0,0,0,48,12,0,0,0 | 30,0,37,0,0,0,25,0 | 41,0,0,41,0,21,0,10 | 42,16,0,0,0,0,0,0 | 0,21,0,0,0,0,0,0 | 35,0,0,0,0,0,0,0 | 46,0,41,46,0,44,0,0 | 0,0,0,35,0,16,0,0 |];
